jobs 122 
horizon 653 
PRECEDENCE:
1    
2    1
3    1
4    1
5    4
6    3
7    5
8    3
9    3
10    7
11    8
12    8
13    12
14    9
15    6
16    15
17    16
18    6
19    15
20    15
21    13
22    21
23    8
24    23
25    6
26    11
27    18
28    14
29    4
30    28
31    10 17
32    11
33    7
34    31
35    7
36    32
37    35
38    31
39    24
40    28
41    23
42    36
43    13
44    14
45    22
46    41
47    39
48    10
49    47
50    16
51    19
52    20 48
53    24
54    5
55    11
56    14
57    50
58    47
59    10
60    25
61    46
62    59
63    39
64    26 52
65    58
66    24
67    64
68    18
69    51
70    26 27
71    29 34
72    32
73    59
74    29
75    23 67
76    56 67
77    30
78    38
79    28 63
80    29 61
81    44
82    20 60
83    2 71 77
84    68
85    43
86    46 70 81
87    13
88    35
89    45 55
90    18
91    37 79
92    54
93    53 60 83
94    5 66 85
95    42
96    57 82 95
97    74 90
98    56 78
99    33 65 88
100    93
101    96
102    85 97
103    38 91 95
104    86 101 102
105    40 76
106    43 53 89
107    84
108    50 80 87
109    4 101
110    72 93 108
111    43 92 98
112    31 92
113    76 101 107
114    62 105 109
115    73 106 111
116    75 81 99
117    69 114 115
118    100 104 117
119    110 112 118
120    49 94 103
121    93 113 116
122    119 120 121
RESOURCEAVAILABILITY 23
REQUESTS/DURATIONS: 
 1 0 0 
 2 5 0 
 3 2 0 
 4 10 0 
 5 4 0 
 6 3 1 
 7 1 0 
 8 7 0 
 9 9 0 
 10 7 0 
 11 10 10 
 12 2 0 
 13 2 0 
 14 2 0 
 15 2 3 
 16 1 0 
 17 10 0 
 18 1 0 
 19 6 0 
 20 7 0 
 21 5 0 
 22 5 0 
 23 9 0 
 24 10 0 
 25 9 7 
 26 6 0 
 27 9 10 
 28 2 0 
 29 4 0 
 30 6 3 
 31 3 0 
 32 5 10 
 33 1 2 
 34 3 0 
 35 3 0 
 36 9 0 
 37 8 9 
 38 6 0 
 39 5 8 
 40 2 0 
 41 1 0 
 42 6 0 
 43 7 0 
 44 9 7 
 45 9 0 
 46 8 0 
 47 10 0 
 48 5 0 
 49 8 0 
 50 7 3 
 51 2 0 
 52 9 0 
 53 5 0 
 54 4 1 
 55 3 0 
 56 8 0 
 57 4 0 
 58 8 0 
 59 5 0 
 60 5 8 
 61 4 0 
 62 9 0 
 63 3 0 
 64 9 0 
 65 6 0 
 66 5 0 
 67 5 0 
 68 4 0 
 69 3 7 
 70 3 0 
 71 1 0 
 72 5 0 
 73 7 0 
 74 4 7 
 75 6 0 
 76 2 0 
 77 1 0 
 78 4 9 
 79 8 0 
 80 7 6 
 81 7 0 
 82 4 1 
 83 10 0 
 84 8 6 
 85 6 0 
 86 1 0 
 87 9 0 
 88 2 0 
 89 4 0 
 90 2 1 
 91 7 0 
 92 8 0 
 93 2 0 
 94 1 7 
 95 6 0 
 96 9 7 
 97 10 3 
 98 4 0 
 99 3 0 
100 4 0 
101 2 0 
102 6 0 
103 6 0 
104 6 9 
105 10 0 
106 10 8 
107 6 0 
108 5 0 
109 8 9 
110 7 3 
111 4 3 
112 3 0 
113 10 8 
114 5 0 
115 5 0 
116 9 0 
117 8 0 
118 1 0 
119 1 0 
120 4 8 
121 10 6 
122 0 0 
